#######################



#######################
Set parameter TimeLimit to value 300
Set parameter SoftMemLimit to value 125
Set parameter MIPFocus to value 2
Set parameter LogFile to value 1202-MIPFocus2-Presolve2-TimeLimit300-k16x240-9.log
Set parameter Presolve to value 2
Set parameter Seed to value 9
Using license file /opt/gurobi/gurobi.lic

Gurobi Optimizer version 12.0.2 build v12.0.2rc0 (linux64 - "Ubuntu 22.04.4 LTS")
Copyright (c) 2025, Gurobi Optimization, LLC

Read MPS format model from file /miplib2010/k16x240.mps.bz2
Reading time = 0.00 seconds
k16x240: 256 rows, 480 columns, 960 nonzeros

Using Gurobi shared library /nfs/shared/static-builds/gurobi1202

CPU model: Intel(R) Xeon(R) E-2388G CPU @ 3.20GHz, instruction set [SSE2|AVX|AVX2|AVX512]
Thread count: 8 physical cores, 16 logical processors, using up to 16 threads

Non-default parameters:
TimeLimit  300
SoftMemLimit  125
MIPFocus  2
Presolve  2
Seed  9

Optimize a model with 256 rows, 480 columns and 960 nonzeros
Model fingerprint: 0x4e80885f
Variable types: 240 continuous, 240 integer (240 binary)
Coefficient statistics:
  Matrix range     [1e+00, 1e+03]
  Objective range  [1e+00, 1e+03]
  Bounds range     [1e+00, 1e+03]
  RHS range        [4e+00, 4e+02]
Found heuristic solution: objective 21896.000000
Presolve time: 0.00s
Presolved: 256 rows, 480 columns, 960 nonzeros
Variable types: 240 continuous, 240 integer (240 binary)
Root relaxation presolve removed 241 rows and 240 columns
Root relaxation presolved: 15 rows, 240 columns, 450 nonzeros


Root relaxation: objective 2.769838e+03, 16 iterations, 0.00 seconds (0.00 work units)

    Nodes    |    Current Node    |     Objective Bounds      |     Work
 Expl Unexpl |  Obj  Depth IntInf | Incumbent    BestBd   Gap | It/Node Time

     0     0 2769.83800    0   14 21896.0000 2769.83800  87.4%     -    0s
H    0     0                    11359.000000 2769.83800  75.6%     -    0s
H    0     0                    11062.000000 2769.83800  75.0%     -    0s
     0     0 8116.87580    0   26 11062.0000 8116.87580  26.6%     -    0s
H    0     0                    10877.000000 8190.91086  24.7%     -    0s
H    0     0                    10792.000000 8190.91086  24.1%     -    0s
H    0     0                    10787.000000 8190.91086  24.1%     -    0s
     0     0 8586.22232    0   26 10787.0000 8586.22232  20.4%     -    0s
     0     0 8613.30839    0   24 10787.0000 8613.30839  20.2%     -    0s
     0     0 8613.47920    0   24 10787.0000 8613.47920  20.1%     -    0s
     0     0 8671.91368    0   31 10787.0000 8671.91368  19.6%     -    0s
H    0     0                    10765.000000 8671.99892  19.4%     -    0s
H    0     0                    10756.000000 8671.99892  19.4%     -    0s
H    0     0                    10739.000000 8713.56649  18.9%     -    0s
     0     0 8713.56649    0   29 10739.0000 8713.56649  18.9%     -    0s
     0     0 8761.60954    0   27 10739.0000 8761.60954  18.4%     -    0s
     0     0 8765.31240    0   27 10739.0000 8765.31240  18.4%     -    0s
     0     0 8951.27098    0   27 10739.0000 8951.27098  16.6%     -    0s
     0     0 9007.99095    0   32 10739.0000 9007.99095  16.1%     -    0s
     0     0 9010.24530    0   33 10739.0000 9010.24530  16.1%     -    0s
     0     0 9069.65579    0   26 10739.0000 9069.65579  15.5%     -    0s
     0     0 9070.18056    0   26 10739.0000 9070.18056  15.5%     -    0s
     0     2 9071.59311    0   26 10739.0000 9071.59311  15.5%     -    0s
H  136   148                    10681.000000 9139.12612  14.4%  30.4    0s
H 2065  1376                    10678.000000 9434.22032  11.6%  18.0    1s
H 2214  1408                    10674.000000 9434.22032  11.6%  20.5    1s
 32413 12578 10484.9442   23   28 10674.0000 9997.97598  6.33%  22.0    5s
 73603 17731 10491.6499   26   33 10674.0000 10199.1978  4.45%  24.2   10s
 110289 15409     cutoff   26      10674.0000 10352.6263  3.01%  24.8   15s

Cutting planes:
  Gomory: 1
  Lift-and-project: 19
  Cover: 82
  Implied bound: 27
  Dual implied bound: 18
  MIR: 159
  Mixing: 2
  Flow cover: 292
  Flow path: 51
  Inf proof: 1
  Zero half: 14
  Network: 44

Explored 146723 nodes (3556655 simplex iterations) in 19.42 seconds (27.38 work units)
Thread count was 16 (of 16 available processors)

Solution count 10: 10674 10678 10681 ... 11062

Optimal solution found (tolerance 1.00e-04)
Best objective 1.067400000000e+04, best bound 1.067400000000e+04, gap 0.0000%
